NAME: cuum160.tsp
TYPE: TSP
COMMENT: User-generated TSP file
DIMENSION: 160
EDGE_WEIGHT_TYPE: EUC_2D
NODE_COORD_SECTION
1 131.0 144.0
2 145.0 141.0
3 38.0 31.0
4 138.0 59.0
5 27.0 154.0
6 153.0 74.0
7 19.0 74.0
8 62.0 25.0
9 18.0 5.0
10 51.0 8.0
11 20.0 136.0
12 114.0 99.0
13 52.0 160.0
14 35.0 87.0
15 127.0 152.0
16 83.0 35.0
17 19.0 32.0
18 13.0 139.0
19 154.0 21.0
20 72.0 47.0
21 142.0 95.0
22 120.0 55.0
23 113.0 22.0
24 157.0 67.0
25 65.0 125.0
26 91.0 150.0
27 139.0 31.0
28 106.0 69.0
29 53.0 100.0
30 80.0 103.0
31 97.0 8.0
32 144.0 101.0
33 35.0 30.0
34 152.0 10.0
35 101.0 58.0
36 150.0 8.0
37 8.0 106.0
38 17.0 111.0
39 60.0 75.0
40 100.0 30.0
41 41.0 31.0
42 42.0 18.0
43 3.0 56.0
44 73.0 14.0
45 3.0 118.0
46 79.0 44.0
47 83.0 147.0
48 132.0 130.0
49 26.0 12.0
50 9.0 58.0
51 94.0 44.0
52 5.0 77.0
53 1.0 130.0
54 28.0 147.0
55 50.0 143.0
56 59.0 63.0
57 111.0 104.0
58 132.0 13.0
59 131.0 60.0
60 14.0 91.0
61 21.0 4.0
62 34.0 32.0
63 75.0 139.0
64 57.0 73.0
65 75.0 60.0
66 145.0 26.0
67 109.0 120.0
68 68.0 54.0
69 74.0 126.0
70 19.0 118.0
71 109.0 140.0
72 142.0 149.0
73 112.0 153.0
74 68.0 23.0
75 114.0 51.0
76 150.0 25.0
77 119.0 113.0
78 160.0 129.0
79 117.0 138.0
80 106.0 4.0
81 117.0 19.0
82 89.0 160.0
83 80.0 11.0
84 82.0 82.0
85 48.0 43.0
86 95.0 54.0
87 152.0 54.0
88 134.0 96.0
89 55.0 118.0
90 51.0 37.0
91 33.0 104.0
92 108.0 112.0
93 89.0 109.0
94 149.0 59.0
95 123.0 98.0
96 90.0 138.0
97 129.0 35.0
98 102.0 147.0
99 41.0 145.0
100 155.0 119.0
101 53.0 121.0
102 9.0 126.0
103 35.0 62.0
104 70.0 66.0
105 65.0 41.0
106 37.0 18.0
107 49.0 56.0
108 155.0 72.0
109 66.0 75.0
110 42.0 128.0
111 26.0 106.0
112 118.0 143.0
113 99.0 151.0
114 154.0 57.0
115 85.0 40.0
116 33.0 85.0
117 127.0 27.0
118 7.0 135.0
119 129.0 72.0
120 35.0 44.0
121 65.0 145.0
122 105.0 31.0
123 12.0 44.0
124 145.0 136.0
125 80.0 131.0
126 51.0 141.0
127 143.0 98.0
128 146.0 117.0
129 87.0 46.0
130 152.0 10.0
131 148.0 54.0
132 133.0 32.0
133 74.0 58.0
134 150.0 57.0
135 58.0 114.0
136 26.0 49.0
137 77.0 145.0
138 79.0 146.0
139 119.0 22.0
140 93.0 91.0
141 44.0 53.0
142 100.0 11.0
143 14.0 103.0
144 46.0 52.0
145 144.0 9.0
146 98.0 126.0
147 66.0 125.0
148 69.0 47.0
149 56.0 22.0
150 87.0 50.0
151 130.0 39.0
152 46.0 26.0
153 26.0 142.0
154 36.0 14.0
155 25.0 96.0
156 63.0 111.0
157 145.0 60.0
158 157.0 104.0
159 84.0 78.0
160 35.0 132.0
EOF





